20
80.0
0 19 4.11 3.99
1 18 5.72 3.93
2 17 4.53 4.86
3 16 5.44 4.55
4 15 6.53 4.18
5 14 4.71 4.19
6 13 5.77 4.14
7 12 7.25 3.35
8 11 5.55 4.18
9 10 6.4 3.89
10 9 6.0 4.42
11 8 6.0 4.53
12 7 4.86 3.23
13 6 6.17 3.54
14 5 4.0 4.65
15 4 8.75 5.82
16 3 4.33 4.41
17 2 6.0 5.77
18 1 8.0 7.98
